proyfinal/src/viki/013/experimentInOfficeAgust.take6.output/3821c01f-f098-4e50-9c47-1fd0d531dfe5.als.dat
{'cnf.clauses': '118081',
 'cnf.totvars': '69608',
 'conflict literals': '2350',
 'conflicts': '262',
 'decisions': '8271',
 'memused.mb': '15.72',
 'outcome': 'UNSAT',
 'propagations': '346538',
 'restarts': '3',
 'solver.msecs': 40,
 'task.msecs': 97}
